p cnf 753 505
e 438 439 440 441 442 443 444 445 446 447 421 422 423 424 425 430 431 432 433 434 435 436 437 0
a 549 551 552 553 556 579 580 581 582 583 584 0
e 448 449 450 451 452 453 454 455 456 457 586 587 588 589 590 591 592 593 594 595 596 597 598 599 600 601 602 603 604 605 606 607 608 609 610 611 612 613 614 615 616 617 618 619 620 621 622 623 624 625 626 627 628 629 630 631 632 633 634 635 636 637 638 639 640 641 642 643 644 645 646 647 648 649 650 651 652 653 654 655 656 657 658 659 660 661 662 663 664 665 666 667 668 669 670 671 672 673 674 675 676 677 678 679 680 681 682 683 684 685 686 687 688 689 690 691 692 693 694 695 696 697 698 699 700 701 702 703 704 705 706 707 708 709 710 711 712 713 714 715 716 717 718 719 720 721 722 723 724 725 726 727 728 729 730 731 732 733 734 735 736 737 738 739 740 741 742 743 744 745 746 747 748 749 750 751 752 753 0
450 -586 0
-456 -586 0
456 586 -450 0
-452 -587 0
586 -587 0
452 587 -586 0
-448 -588 0
587 -588 0
448 588 -587 0
-455 -589 0
588 -589 0
455 589 -588 0
-450 -590 0
456 -590 0
450 590 -456 0
-452 -591 0
590 -591 0
452 591 -590 0
-448 -592 0
591 -592 0
448 592 -591 0
-455 -593 0
592 -593 0
455 593 -592 0
-450 -594 0
-456 -594 0
450 456 594 0
452 -595 0
594 -595 0
595 -452 -594 0
-448 -596 0
595 -596 0
448 596 -595 0
-455 -597 0
596 -597 0
455 597 -596 0
-452 -598 0
594 -598 0
452 598 -594 0
-448 -599 0
598 -599 0
448 599 -598 0
455 -600 0
599 -600 0
600 -455 -599 0
448 -601 0
598 -601 0
601 -448 -598 0
-455 -602 0
601 -602 0
455 602 -601 0
-600 -603 0
-602 -603 0
600 602 603 0
-597 -604 0
603 -604 0
597 604 -603 0
-593 -605 0
604 -605 0
593 605 -604 0
-589 -606 0
605 -606 0
589 606 -605 0
-438 -607 0
-439 -607 0
438 439 607 0
-440 -608 0
607 -608 0
440 608 -607 0
-441 -609 0
608 -609 0
441 609 -608 0
-442 -610 0
609 -610 0
442 610 -609 0
-443 -611 0
610 -611 0
443 611 -610 0
-444 -612 0
611 -612 0
444 612 -611 0
445 -613 0
612 -613 0
613 -445 -612 0
-446 -614 0
613 -614 0
446 614 -613 0
-447 -615 0
614 -615 0
447 615 -614 0
-447 -616 0
-445 -616 0
447 445 616 0
434 -617 0
556 -617 0
617 -434 -556 0
435 -618 0
-556 -618 0
556 618 -435 0
-617 -619 0
-618 -619 0
617 618 619 0
445 -620 0
619 -620 0
620 -445 -619 0
-616 -621 0
-620 -621 0
616 620 621 0
-457 -622 0
-621 -622 0
457 621 622 0
457 -623 0
621 -623 0
623 -457 -621 0
-622 -624 0
-623 -624 0
622 623 624 0
-424 -625 0
-425 -625 0
424 425 625 0
445 -626 0
-625 -626 0
625 626 -445 0
-438 -627 0
-626 -627 0
438 626 627 0
446 -628 0
627 -628 0
628 -446 -627 0
445 -629 0
-438 -629 0
438 629 -445 0
-442 -630 0
629 -630 0
442 630 -629 0
-446 -631 0
630 -631 0
446 631 -630 0
-440 -632 0
631 -632 0
440 632 -631 0
628 -633 0
632 -633 0
633 -628 -632 0
584 -634 0
-632 -634 0
632 634 -584 0
-633 -635 0
-634 -635 0
633 634 635 0
421 -636 0
-635 -636 0
635 636 -421 0
-456 -637 0
-636 -637 0
456 636 637 0
456 -638 0
636 -638 0
638 -456 -636 0
-637 -639 0
-638 -639 0
637 638 639 0
445 -640 0
627 -640 0
640 -445 -627 0
-640 -641 0
632 -641 0
640 641 -632 0
-445 -642 0
438 -642 0
445 642 -438 0
-442 -643 0
642 -643 0
442 643 -642 0
-446 -644 0
643 -644 0
446 644 -643 0
-440 -645 0
644 -645 0
440 645 -644 0
552 -646 0
645 -646 0
646 -552 -645 0
-579 -647 0
-583 -647 0
579 583 647 0
445 -648 0
-422 -648 0
422 648 -445 0
-423 -649 0
-648 -649 0
423 648 649 0
583 -650 0
649 -650 0
650 -583 -649 0
-647 -651 0
-650 -651 0
647 650 651 0
651 -652 0
-645 -652 0
645 652 -651 0
-646 -653 0
-652 -653 0
646 652 653 0
-632 -654 0
653 -654 0
632 654 -653 0
-641 -655 0
-654 -655 0
641 654 655 0
421 -656 0
-655 -656 0
655 656 -421 0
-455 -657 0
-656 -657 0
455 656 657 0
455 -658 0
656 -658 0
658 -455 -656 0
-657 -659 0
-658 -659 0
657 658 659 0
-444 -660 0
-445 -660 0
444 445 660 0
430 -661 0
556 -661 0
661 -430 -556 0
431 -662 0
-556 -662 0
556 662 -431 0
-661 -663 0
-662 -663 0
661 662 663 0
445 -664 0
663 -664 0
664 -445 -663 0
-660 -665 0
-664 -665 0
660 664 665 0
-454 -666 0
-665 -666 0
454 665 666 0
454 -667 0
665 -667 0
667 -454 -665 0
-666 -668 0
-667 -668 0
666 667 668 0
-443 -669 0
-445 -669 0
443 445 669 0
436 -670 0
556 -670 0
670 -436 -556 0
437 -671 0
-556 -671 0
556 671 -437 0
-670 -672 0
-671 -672 0
670 671 672 0
445 -673 0
672 -673 0
673 -445 -672 0
-669 -674 0
-673 -674 0
669 673 674 0
-453 -675 0
-674 -675 0
453 674 675 0
453 -676 0
674 -676 0
676 -453 -674 0
-675 -677 0
-676 -677 0
675 676 677 0
442 -678 0
627 -678 0
678 -442 -627 0
678 -679 0
632 -679 0
679 -678 -632 0
422 -680 0
441 -680 0
680 -422 -441 0
-423 -681 0
-680 -681 0
423 680 681 0
549 -682 0
681 -682 0
682 -549 -681 0
-682 -683 0
645 -683 0
682 683 -645 0
581 -684 0
583 -684 0
684 -581 -583 0
442 -685 0
-422 -685 0
422 685 -442 0
-423 -686 0
685 -686 0
423 686 -685 0
-583 -687 0
686 -687 0
583 687 -686 0
-684 -688 0
-687 -688 0
684 687 688 0
688 -689 0
-645 -689 0
645 689 -688 0
-683 -690 0
-689 -690 0
683 689 690 0
-632 -691 0
690 -691 0
632 691 -690 0
-679 -692 0
-691 -692 0
679 691 692 0
421 -693 0
-692 -693 0
692 693 -421 0
-452 -694 0
-693 -694 0
452 693 694 0
452 -695 0
693 -695 0
695 -452 -693 0
-694 -696 0
-695 -696 0
694 695 696 0
-441 -697 0
-445 -697 0
441 445 697 0
432 -698 0
556 -698 0
698 -432 -556 0
433 -699 0
-556 -699 0
556 699 -433 0
-698 -700 0
-699 -700 0
698 699 700 0
445 -701 0
700 -701 0
701 -445 -700 0
-697 -702 0
-701 -702 0
697 701 702 0
-451 -703 0
-702 -703 0
451 702 703 0
451 -704 0
702 -704 0
704 -451 -702 0
-703 -705 0
-704 -705 0
703 704 705 0
551 -706 0
681 -706 0
706 -551 -681 0
-706 -707 0
645 -707 0
706 707 -645 0
582 -708 0
-583 -708 0
583 708 -582 0
440 -709 0
-422 -709 0
422 709 -440 0
-423 -710 0
709 -710 0
423 710 -709 0
583 -711 0
710 -711 0
711 -583 -710 0
-708 -712 0
-711 -712 0
708 711 712 0
712 -713 0
-645 -713 0
645 713 -712 0
-707 -714 0
-713 -714 0
707 713 714 0
-632 -715 0
714 -715 0
632 715 -714 0
421 -716 0
715 -716 0
716 -421 -715 0
-450 -717 0
-716 -717 0
450 716 717 0
450 -718 0
716 -718 0
718 -450 -716 0
-717 -719 0
-718 -719 0
717 718 719 0
439 -720 0
-445 -720 0
445 720 -439 0
424 -721 0
-425 -721 0
425 721 -424 0
445 -722 0
721 -722 0
722 -445 -721 0
-720 -723 0
-722 -723 0
720 722 723 0
421 -724 0
-723 -724 0
723 724 -421 0
-449 -725 0
-724 -725 0
449 724 725 0
449 -726 0
724 -726 0
726 -449 -724 0
-725 -727 0
-726 -727 0
725 726 727 0
-627 -728 0
632 -728 0
627 728 -632 0
-553 -729 0
645 -729 0
553 729 -645 0
580 -730 0
-583 -730 0
583 730 -580 0
438 -731 0
-422 -731 0
422 731 -438 0
-423 -732 0
731 -732 0
423 732 -731 0
583 -733 0
732 -733 0
733 -583 -732 0
-730 -734 0
-733 -734 0
730 733 734 0
734 -735 0
-645 -735 0
645 735 -734 0
-729 -736 0
-735 -736 0
729 735 736 0
-632 -737 0
736 -737 0
632 737 -736 0
-728 -738 0
-737 -738 0
728 737 738 0
421 -739 0
-738 -739 0
738 739 -421 0
-448 -740 0
-739 -740 0
448 739 740 0
448 -741 0
739 -741 0
741 -448 -739 0
-740 -742 0
-741 -742 0
740 741 742 0
-727 -743 0
-742 -743 0
727 742 743 0
-719 -744 0
743 -744 0
719 744 -743 0
-705 -745 0
744 -745 0
705 745 -744 0
-696 -746 0
745 -746 0
696 746 -745 0
-677 -747 0
746 -747 0
677 747 -746 0
-668 -748 0
747 -748 0
668 748 -747 0
659 -749 0
748 -749 0
749 -659 -748 0
-639 -750 0
749 -750 0
639 750 -749 0
-624 -751 0
750 -751 0
624 751 -750 0
615 -752 0
751 -752 0
752 -615 -751 0
606 -753 0
752 -753 0
753 -606 -752 0
753 0
